Instance: E135-07f.dat
Class:  2
  134 --- number of customers (no depot)
   24 --- number of vehicles
  197 --- number of items
Capacity - height - width of vehicles
  2210     40     20
Node - x - y - demand
    0    -6.0    15.0     0.0
    1     3.2     5.1    30.0
    2    24.6     8.3   226.0
    3    23.3     1.3    37.0
    4    27.8     8.3    24.0
    5    29.0     8.0    36.0
    6    31.0     8.0     1.0
    7    33.5    10.5    31.0
    8    30.0    10.5    24.0
    9    29.0    10.0    30.0
   10    26.5    11.7    24.0
   11    28.3    14.3    24.0
   12    27.0    14.3    32.0
   13    23.5    19.0    24.0
   14    26.0    20.0    24.0
   15    25.0    20.0    19.0
   16    20.5    19.0    24.0
   17   -20.0    13.0    18.0
   18   -21.0    14.0    36.0
   19   -30.0    30.0   115.0
   20    -5.0    30.0    24.0
   21     1.3    17.8    24.0
   22     1.8    13.8    61.0
   23     1.8    13.1    71.0
   24     2.0    13.6    36.0
   25     4.8    17.0    18.0
   26     7.0    15.0    30.0
   27     9.8    16.6    31.0
   28    11.4    14.5    36.0
   29    14.4    11.3    18.0
   30    11.0    12.0  1004.0
   31     9.3    10.7    18.0
   32     0.6     2.8    34.0
   33   -30.0   -10.0   504.0
   34     2.0     0.0    18.0
   35    14.5     1.0    39.0
   36    15.0     1.8    24.0
   37    17.2     2.4    37.0
   38    17.2     4.2    24.0
   39    18.2     4.4    99.0
   40    20.3     2.1    24.0
   41    22.8     3.1    24.0
   42    23.0     4.0    36.0
   43    20.8     4.0    30.0
   44    20.8     4.0    25.0
   45    18.5     6.4    24.0
   46   -14.0    16.0   122.0
   47    -0.5     6.9   196.0
   48     3.2     2.8   229.0
   49     5.6     1.8    83.0
   50     8.7     2.8    18.0
   51     9.0     3.3    24.0
   52     9.0     3.5   306.0
   53    11.2     3.3    18.0
   54    10.8     4.7    20.0
   55    11.5     4.6    18.0
   56    12.3     4.7    24.0
   57    12.3     5.5    22.0
   58    11.2     6.9    24.0
   59     6.5     9.7    18.0
   60     5.8     8.5    18.0
   61     7.2     6.0    24.0
   62     7.2     4.0    24.0
   63    -4.0    -4.0    30.0
   64    -3.0     1.2    24.0
   65   -40.0    49.0    40.0
   66   -15.0    10.0   166.0
   67   -11.0   -10.0   254.0
   68   -25.0   -20.0   187.0
   69   -25.0   -35.0    94.0
   70   -24.0   -35.0    17.0
   71   -18.0    10.0   285.0
   72    -2.0    10.0    24.0
   73    -4.0     8.0    24.0
   74    -3.0     5.0   205.0
   75     2.1     6.2    23.0
   76    -1.7     3.0    28.0
   77    -3.0     2.0    51.0
   78    -7.0     0.0    49.0
   79    -3.0    -6.0    19.0
   80   -30.0   -11.0   262.0
   81   -62.0   -10.0   120.0
   82    -8.0    30.0   266.0
   83     1.0    60.0   704.0
   84    10.0    52.0    38.0
   85    10.0    52.0    18.0
   86    10.0    51.0    30.0
   87    16.0    29.0    25.0
   88    26.0    21.0    12.0
   89    16.0    21.0    18.0
   90    15.5    19.2    25.0
   91     0.0    16.5    35.0
   92    17.2    14.3    18.0
   93    16.5     7.8    12.0
   94    16.9     7.7    20.0
   95    18.0     2.0  1126.0
   96    16.2     4.0     9.0
   97    15.0     4.0    36.0
   98    15.0     3.0    12.0
   99    14.8     2.4    31.0
  100    14.5     3.0    96.0
  101    13.0     2.6    27.0
  102    11.8     3.0    54.0
  103    12.0     4.0   137.0
  104    12.8     3.6    12.0
  105    13.4     5.5    58.0
  106  -150.0     8.0   206.0
  107  -152.0     1.0   178.0
  108  -152.0     0.0   486.0
  109  -142.0   -31.0    36.0
  110   -78.0   -19.0   261.0
  111   -78.0   -18.0   135.0
  112   -78.0   -17.0   135.0
  113   -80.0   -14.0   373.0
  114  -118.0    22.0   535.0
  115  -107.0    30.0    42.0
  116   -85.0    14.0     9.0
  117   -78.0    15.0   110.0
  118   -15.0    16.0    36.0
  119   -62.0    32.0    18.0
  120  -120.0   -20.0   726.0
  121   -90.0   -22.0   187.0
  122   -79.0   -19.0    23.0
  123   -79.0   -18.5   134.0
  124   -79.0   -18.0    47.0
  125   -78.0   -17.5    51.0
  126   -79.0   -17.0    43.0
  127   -80.0   -17.0    79.0
  128   -80.0   -16.0   112.0
  129   -80.0   -15.0    91.0
  130   -48.0    37.0   232.0
  131   -85.0    15.0   483.0
  132   -62.0    -9.0   828.0
  133   -15.0    -4.0    11.0
  134    -1.0     3.2    12.0
Node - number of items - h - w for each item
    0   0
    1   1   18    4
    2   2    4   12    9    5
    3   2   21    3   21    2
    4   2    6   18   17    3
    5   2   16    9   11    5
    6   2   29    3   35    2
    7   2    7   15   10    4
    8   2   17   10   34    2
    9   1   26    3
   10   2   32    4   31    4
   11   1   36    3
   12   1    7    9
   13   2   18    6   28    3
   14   1   27    2
   15   2   10    8    8    8
   16   1   21    3
   17   2    4   10   17    9
   18   1   16    3
   19   2   21    4   21    3
   20   2    5   11   17    2
   21   2    5    9   27    3
   22   1   34    4
   23   1   24    3
   24   1    6   16
   25   2    4   16    6    8
   26   1   24    3
   27   2    9    9   14    8
   28   2    6   12    5   11
   29   2   18   10   10    4
   30   2   16    4   25    3
   31   2    6   14   23    2
   32   2   11    9   11    5
   33   2    5   12   18   10
   34   2   14   10   17    7
   35   2    4   16   26    4
   36   1    4   12
   37   2    7   11    9    8
   38   2   17    9   31    4
   39   1   24    3
   40   1   34    3
   41   1    6   11
   42   2    5    8   19    2
   43   2   10    8   13    6
   44   2   15   10   12    7
   45   1   13   10
   46   1   18    7
   47   1   23    3
   48   1   28    4
   49   1   33    3
   50   2   11    7   16    5
   51   1   11    5
   52   1    7   16
   53   1   33    4
   54   1    8    6
   55   1   10    7
   56   1    5   18
   57   1    5   14
   58   1    7    8
   59   1   33    3
   60   1   14    9
   61   1   13    6
   62   1   20    4
   63   1    4   11
   64   2    5   18   23    3
   65   1   18    9
   66   2   12   10   16    9
   67   2    8   17    8   14
   68   2    6   13   18    8
   69   1    8   10
   70   1   17    3
   71   1    6   11
   72   2   13    4   19    3
   73   1   23    4
   74   1    7   17
   75   1   14    6
   76   1   32    4
   77   2    6    8   21    4
   78   2   28    3   35    2
   79   1   33    4
   80   1    9    4
   81   2    6   15   10    8
   82   1   30    4
   83   1   13    4
   84   1   25    4
   85   2    6   12    5    9
   86   1    5   12
   87   1    8    8
   88   2   13    8   30    2
   89   1   19    8
   90   2   13    8    8    5
   91   1    8    7
   92   2   15    5   13    5
   93   1   12    4
   94   1    5   16
   95   1   22    3
   96   2   21    3   19    2
   97   1    6   17
   98   1    5   10
   99   1   10    6
  100   2    7   10   13    4
  101   2   12    6   19    3
  102   1   17    8
  103   1    7   13
  104   2    8   16    9    8
  105   2   34    3   21    3
  106   2   18    4   27    2
  107   1    8   15
  108   1   27    3
  109   2   17    9   15    7
  110   2    7   16   31    4
  111   2   13    6   19    4
  112   2    4   13   19    3
  113   2   13    6   18    4
  114   1    5    8
  115   1   12    6
  116   1   35    3
  117   2    5   13    8   10
  118   1   12    4
  119   2    5   14   14    8
  120   2    8   14   33    3
  121   2   14    6   29    2
  122   1    5   10
  123   1   12    5
  124   1    5   13
  125   1   21    3
  126   2    5   16    6   14
  127   2    6    8   23    4
  128   2   20    3   23    2
  129   1   30    3
  130   2    4   17   17    7
  131   2    6   17   12    4
  132   2    8   16   11    9
  133   1    7   12
  134   1    5   16
